383502
14,80,44,9,47,7,3,101,33,72,51,100,53,48,85,20,30,16,6,26,50,68,24,12,89,76,83,92,57,10,61,35,2,46,90,64,103,74,102,34,49,94,91,79,43,58,59,66,75,32,63,18,19,99,42,62,21,73,70,77,40,31,88,98,8,25,81,23,87,106,52,55,13,22,36,71,11,38,78,104,54,41,67,95,39,84,86,37,60,105,96,1,27,28,93,97,65,29,56,17,5,69,45,82,15,4,14